128347.05
16 17 139 140 138 38 39 40 41 42 163 64 65 63 164 165 166 167 168 68 69 70 71 72 193 192 191 190 189 66 67 188 88 89 90 91 92 213 214 215 216 217 218 219 220 222 223 221 97 96 95 94 93 194 195 196 197 198 199 200 98 99 100 101 102 224 0 1 2 3 4 5 107 6 7 8 9 10 11 12 112 111 110 109 108 211 210 212 87 86 85 84 83 187 62 61 186 185 184 183 182 57 56 55 54 53 156 157 158 159 160 161 58 60 59 162 37 36 35 34 33 137 136 135 134 133 132 131 130 129 28 29 30 31 32 155 154 153 152 151 150 48 49 50 51 52 175 176 177 178 179 180 181 78 79 80 81 82 206 207 209 208 104 106 105 103 205 204 203 202 201 77 76 75 74 73 174 173 172 171 170 169 47 46 45 44 43 142 141 143 21 22 144 145 146 147 148 149 27 26 25 24 23 126 128 127 125 124 123 122 121 120 19 20 18 119 118 117 116 115 114 113 13 14 15